x
1	0	0	0	0	0	0	0	0	0	0	0	0	0	0	0	0	0	-0	-0	-0	-0	-0	
1	0	0	0	0	0	0	0	0	0	0	0	0	0	0	0	0	0	-0	-0	-0	-0	-0	
1	0	0	0	0	0	0	0	0	0	0	0	0	0	0	0	0	0	-0	-0	-0	-0	-0	
1	0	0	0	0	0	0	0	0	0	0	0	0	0	0	0	0	0	-0	-0	-0	-0	-0	
1	0	0	0	0	0	0	0	0	0	0	0	0	0	0	0	0	0	-0	-0	-0	-0	-0	
-0	1	0	0	0	0	0	0	0	0	0	0	0	0	0	0	0	0	-0	-0	-0	-0	-0	
-0	1	0	0	0	0	0	0	0	0	0	0	0	0	0	0	0	0	-0	-0	-0	-0	-0	
0	0	0	1	0	0	0	0	0	0	0	0	0	0	0	0	0	0	-0	-0	-0	-0	-0	
-0	0	0	0	1	0	0	0	0	0	0	0	0	0	0	0	0	0	-0	-0	-0	-0	-0	
-0	1	0	0	0	0	0	0	0	0	0	0	0	0	0	0	0	0	-0	-0	-0	-0	-0	
-0	1	0	0	0	0	0	0	0	0	0	0	0	0	0	0	0	0	-0	-0	-0	-0	-0	
-0	0	1	0	0	0	0	0	0	0	0	0	0	0	0	0	0	0	-0	-0	-0	-0	-0	
-0	-0	1	0	0	0	0	0	0	0	0	0	0	0	0	0	0	0	-0	-0	-0	-0	-0	
-0	-0	1	0	0	0	0	0	0	0	0	0	0	0	0	0	0	0	-0	-0	-0	-0	-0	
-0	-0	0	1	0	0	0	0	0	0	0	0	0	0	0	0	0	0	-0	-0	-0	-0	-0	
-0	-0	-0	1	0	0	0	0	0	0	0	0	0	0	0	0	0	0	0	-0	-0	-0	-0	
-0	-0	0	1	0	0	0	0	0	0	0	0	0	0	0	0	0	0	-0	-0	-0	-0	-0	
-0	-0	0	0	1	0	0	0	0	0	0	0	0	0	0	0	0	0	-0	-0	-0	-0	-0	
-0	-0	-0	-0	0	0	0	1	0	0	0	0	0	0	0	0	0	0	-0	-0	-0	-0	-0	
-0	-0	0	0	1	0	0	0	0	0	0	0	0	0	0	0	0	0	0	-0	-0	-0	-0	
-0	-0	-0	0	0	1	0	0	0	0	0	0	0	0	0	0	0	0	0	0	-0	-0	-0	
-0	-0	-0	0	0	0	0	1	0	0	0	0	0	0	0	0	0	0	-0	-0	-0	-0	-0	
-0	-0	-0	-0	0	0	0	1	0	0	0	0	0	0	0	0	0	0	-0	-0	-0	-0	-0	
-0	-0	-0	-0	0	0	0	1	0	0	0	0	0	0	0	0	0	0	-0	-0	-0	-0	-0	
-0	-0	-0	-0	0	-0	0	0	1	0	0	0	0	0	0	0	0	0	0	-0	-0	-0	-0	
-0	-0	-0	-0	-0	-0	-0	0	0	0	1	0	0	0	0	0	0	0	0	-0	-0	-0	-0	
-0	-0	-0	-0	-0	-0	-0	0	0	1	0	0	0	0	0	0	0	0	0	0	-0	-0	-0	
-0	-0	-0	-0	-0	0	1	0	0	0	0	0	0	0	0	0	0	0	0	0	-0	-0	-0	
-0	-0	-0	-0	-0	-0	-0	0	0	1	0	0	0	0	0	0	0	0	0	0	-0	-0	-0	
0	0	1	0	0	0	0	0	0	0	0	0	0	0	0	0	0	0	0	0	-0	-0	-0	
-0	-0	-0	-0	-0	-0	-0	0	0	1	0	0	0	0	0	0	0	0	0	0	-0	-0	-0	
-0	-0	-0	-0	-0	-0	-0	0	0	0	1	0	0	0	0	0	0	0	0	0	-0	-0	-0	
-0	-0	-0	-0	-0	-0	-0	0	0	0	1	0	0	0	0	0	0	0	0	0	-0	-0	-0	
-0	-0	-0	-0	-0	-0	-0	0	0	0	0	1	0	-0	0	0	0	0	0	0	-0	-0	-0	
-0	-0	-0	-0	-0	-0	-0	0	-0	0	0	1	0	0	0	0	0	0	0	0	-0	-0	-0	
-0	-0	-0	-0	-0	-0	-0	-0	-0	-0	0	0	1	0	0	0	0	0	0	0	-0	-0	-0	
-0	-0	-0	-0	-0	-0	-0	-0	-0	-0	0	0	1	0	0	0	0	0	0	0	-0	-0	-0	
-0	-0	-0	-0	-0	-0	-0	-0	-0	-0	-0	0	0	1	0	0	0	0	0	0	-0	-0	-0	
-0	-0	-0	-0	-0	-0	-0	-0	-0	-0	0	0	0	1	0	0	0	0	0	0	-0	-0	-0	
-0	-0	-0	-0	-0	-0	0	-0	-0	-0	0	-0	0	0	1	0	0	0	0	0	-0	-0	-0	
-0	-0	-0	-0	-0	-0	-0	-0	-0	-0	-0	-0	-0	0	0	0	1	0	0	0	-0	-0	-0	
-0	-0	-0	-0	-0	-0	-0	-0	-0	-0	-0	-0	0	1	0	0	0	0	0	0	-0	-0	-0	
-0	-0	-0	-0	-0	-0	-0	-0	-0	-0	-0	0	0	0	1	0	0	0	0	0	-0	-0	-0	
-0	-0	-0	-0	-0	-0	-0	-0	-0	-0	0	-0	-0	0	1	0	0	0	0	0	-0	-0	-0	
-0	-0	-0	-0	-0	-0	-0	-0	-0	-0	-0	0	-0	0	1	0	0	0	0	0	-0	-0	-0	
-0	-0	-0	-0	-0	-0	-0	-0	-0	-0	-0	0	-0	0	1	0	0	0	0	0	-0	-0	-0	
-0	-0	-0	-0	-0	-0	-0	-0	-0	-0	-0	-0	-0	0	1	0	0	0	0	0	-0	-0	-0	
-0	-0	-0	-0	-0	-0	-0	-0	-0	-0	-0	-0	-0	0	0	0	0	0	0	0	0	0	1	
-0	-0	-0	-0	-0	-0	-0	-0	-0	-0	-0	-0	-0	0	0	1	0	0	0	0	-0	-0	-0	
-0	-0	-0	-0	-0	-0	-0	-0	-0	-0	-0	-0	-0	-0	0	1	0	0	0	0	-0	-0	-0	
-0	-0	-0	-0	-0	-0	-0	-0	-0	-0	-0	-0	-0	-0	0	1	0	0	0	0	-0	-0	-0	
-0	-0	-0	-0	-0	-0	-0	-0	-0	-0	-0	-0	-0	-0	-0	0	1	0	0	0	-0	-0	-0	
-0	-0	-0	-0	-0	-0	-0	-0	-0	-0	-0	-0	-0	-0	-0	0	1	0	0	0	-0	-0	-0	
-0	-0	-0	0	-0	1	0	0	0	0	0	0	0	0	0	0	0	0	0	0	-0	-0	-0	
-0	-0	-0	0	0	1	0	0	0	0	0	0	0	0	0	0	0	0	0	0	-0	-0	-0	
-0	-0	-0	0	0	1	0	0	0	0	0	0	0	0	0	0	0	0	0	0	-0	-0	-0	
-0	-0	-0	-0	0	1	0	0	0	0	0	0	0	0	0	0	-0	0	0	0	-0	-0	-0	
-0	-0	-0	-0	-0	-0	0	0	0	0	0	0	1	0	0	0	0	0	0	0	-0	-0	-0	
-0	-0	-0	-0	-0	0	0	0	0	0	0	0	0	0	0	0	1	0	0	0	-0	-0	-0	
-0	-0	-0	-0	-0	0	0	0	0	0	0	0	0	0	1	0	0	0	0	0	-0	-0	-0	
-0	-0	-0	-0	-0	0	0	0	0	0	0	1	0	0	0	0	0	0	0	0	-0	-0	-0	
-0	-0	-0	-0	0	-0	0	0	0	1	0	0	0	0	0	0	0	0	0	0	-0	-0	-0	
-0	-0	-0	-0	-0	0	0	0	0	1	0	0	0	0	0	0	0	0	0	0	-0	-0	-0	
-0	-0	-0	-0	-0	-0	0	1	0	0	0	0	0	0	0	0	0	0	0	0	-0	-0	-0	
-0	-0	-0	-0	-0	-0	0	1	0	0	0	0	0	0	0	0	0	0	0	0	-0	-0	-0	
-0	-0	-0	-0	-0	0	0	0	1	0	0	0	0	0	0	0	0	0	0	0	-0	-0	-0	
-0	-0	-0	-0	-0	-0	0	0	0	0	0	0	0	0	0	0	0	1	0	0	-0	-0	-0	
-0	-0	-0	-0	-0	-0	-0	-0	-0	-0	-0	-0	-0	-0	-0	-0	1	0	0	0	-0	-0	-0	
-0	-0	-0	-0	-0	-0	-0	-0	-0	-0	-0	-0	-0	-0	-0	0	0	1	0	0	-0	-0	-0	
-0	-0	-0	-0	-0	-0	-0	-0	-0	-0	-0	-0	-0	-0	-0	0	0	1	0	0	-0	-0	-0	
-0	-0	-0	-0	-0	-0	-0	-0	-0	-0	-0	-0	-0	-0	-0	0	0	1	0	0	-0	-0	-0	
-0	-0	-0	-0	-0	-0	-0	-0	-0	-0	-0	-0	-0	-0	-0	0	0	1	0	0	-0	-0	-0	
-0	-0	-0	-0	-0	-0	-0	-0	-0	-0	-0	-0	-0	-0	-0	-0	0	1	0	0	-0	-0	-0	
-0	-0	-0	-0	-0	-0	-0	-0	-0	-0	-0	-0	-0	-0	-0	-0	0	0	1	0	-0	-0	-0	
-0	-0	-0	-0	-0	-0	-0	-0	-0	-0	-0	-0	-0	-0	-0	-0	0	0	0	1	-0	-0	-0	
-0	-0	-0	-0	-0	-0	-0	-0	-0	-0	-0	-0	-0	-0	-0	-0	0	-0	1	0	0	-0	-0	
-0	-0	-0	-0	-0	-0	-0	-0	-0	-0	-0	-0	-0	-0	-0	-0	-0	0	0	1	-0	-0	-0	
-0	-0	-0	-0	-0	-0	-0	-0	-0	-0	-0	-0	-0	-0	-0	-0	-0	0	0	1	-0	-0	-0	
-0	-0	-0	-0	-0	-0	-0	-0	-0	-0	-0	-0	-0	-0	-0	-0	-0	-0	0	0	1	-0	-0	
-0	-0	-0	-0	-0	0	-0	-0	-0	-0	-0	-0	-0	-0	-0	-0	0	0	1	0	-0	-0	-0	
-0	-0	-0	-0	-0	-0	0	-0	-0	-0	-0	-0	-0	-0	-0	-0	-0	-0	0	0	1	-0	-0	
-0	-0	-0	-0	-0	-0	-0	-0	-0	-0	-0	-0	-0	-0	-0	-0	-0	-0	0	0	0	1	-0	
-0	-0	-0	-0	-0	-0	-0	-0	-0	-0	-0	-0	-0	-0	-0	-0	-0	-0	-0	0	9.46074e-09	1	-0	
-0	-0	-0	-0	-0	-0	-0	-0	-0	-0	-0	-0	-0	-0	-0	-0	-0	-0	-0	0	1	9.46074e-09	-0	
-0	-0	-0	-0	-0	-0	-0	-0	-0	-0	-0	-0	-0	-0	-0	-0	-0	-0	0	0	0	1	-0	
-0	-0	-0	-0	-0	-0	-0	-0	-0	-0	-0	-0	-0	-0	-0	-0	-0	-0	-0	-0	9.46074e-09	1	-0	
-0	-0	-0	-0	-0	-0	-0	-0	-0	-0	-0	-0	-0	-0	-0	-0	-0	-0	-0	-0	9.46074e-09	-9.46074e-09	1	
-0	-0	-0	-0	-0	-0	-0	-0	-0	-0	-0	-0	-0	-0	-0	-0	-0	-0	-0	-0	0	0	1	
-0	-0	-0	-0	-0	-0	-0	-0	-0	-0	-0	-0	-0	-0	-0	-0	-0	-0	-0	-0	-0	0	1	
y
1	1	1	1	1	1	1	1	1	1	1	1	1	1	1	1	1	1	1	1	1	1	1	
Fmax = 0.2344
